3
4
40
1 1.3 1.55 1.75 2.1
41 35 16 43 46 39 43 30 11 7 39 23 45 39 25 6 9 47 23 33 15 46 44 48 5 12 15 37 28 15 35 47 21 46 11 6 11 49 43 29 8 49 37 9 28 8 29 48 34 21 11 12 19 20 38 26 40 42 13 5 20 35 21 34 12 28 47 9 15 26 14 18 19 39 29 14 15 36 7 22 20 17 17 33 24 29 35 41 22 28 41 33 18 41 26 17 10 40 45 23 45 46 17 22 21 7 35 18 37 36 18 25 38 13 39 11 18 26 43 12 30 34 31 42 10 29 27 44 25 17 36 44 46 47 48 21 5 19 39 45 40 6 15 47 25 36 41 13 18 6 7 31 34 15 5 28 35 28 22 38 